============================[ Problem Statistics ]=============================|                                                                             ||  Number of variables:          4242                                         ||  Number of clauses:           10215                                         ||  Parse time:                   0.60 s                                       ||                                                                             |============================[ Search Statistics ]==============================| Conflicts |          ORIGINAL         |          LEARNT          | Progress ||           |    Vars  Clauses Literals |    Limit  Clauses Lit/Cl |          |===============================================================================|       100 |    1591     6420   961621 |     2354      100     53 | 62.501 % ||       250 |    1591     6420   961621 |     2589      250     75 | 62.495 % |===============================================================================restarts              : 3conflicts             : 332            (366 /sec)decisions             : 597            (0.00 % random) (659 /sec)propagations          : 11917          (13153 /sec)conflict literals     : 26709          (94.66 % deleted)CPU time              : 0.906 sSATISFIABLE